250
# Bcc Mn oriented X=[100], Y=[010], Z=[001].
Mn  0.00000000  0.00000000  0.00000000 0.0 0.0 1.0
Mn  0.50000000  0.50000000  0.50000000 0.0 0.0 -1.0
Mn  1.00000000  0.00000000  0.00000000 0.0 0.0 -1.0
Mn  1.50000000  0.50000000  0.50000000 0.0 0.0 1.0
Mn  2.00000000  0.00000000  0.00000000 0.0 0.0 -1.0
Mn  2.50000000  0.50000000  0.50000000 0.0 0.0 1.0
Mn  3.00000000  0.00000000  0.00000000 0.0 0.0 1.0
Mn  3.50000000  0.50000000  0.50000000 0.0 0.0 -1.0
Mn  4.00000000  0.00000000  0.00000000 0.0 0.0 1.0
Mn  4.50000000  0.50000000  0.50000000 0.0 0.0 1.0
Mn  0.00000000  1.00000000  0.00000000 0.0 0.0 1.0
Mn  0.50000000  1.50000000  0.50000000 0.0 0.0 -1.0
Mn  1.00000000  1.00000000  0.00000000 0.0 0.0 -1.0
Mn  1.50000000  1.50000000  0.50000000 0.0 0.0 1.0
Mn  2.00000000  1.00000000  0.00000000 0.0 0.0 -1.0
Mn  2.50000000  1.50000000  0.50000000 0.0 0.0 -1.0
Mn  3.00000000  1.00000000  0.00000000 0.0 0.0 -1.0
Mn  3.50000000  1.50000000  0.50000000 0.0 0.0 1.0
Mn  4.00000000  1.00000000  0.00000000 0.0 0.0 1.0
Mn  4.50000000  1.50000000  0.50000000 0.0 0.0 1.0
Mn  0.00000000  2.00000000  0.00000000 0.0 0.0 1.0
Mn  0.50000000  2.50000000  0.50000000 0.0 0.0 -1.0
Mn  1.00000000  2.00000000  0.00000000 0.0 0.0 -1.0
Mn  1.50000000  2.50000000  0.50000000 0.0 0.0 1.0
Mn  2.00000000  2.00000000  0.00000000 0.0 0.0 1.0
Mn  2.50000000  2.50000000  0.50000000 0.0 0.0 -1.0
Mn  3.00000000  2.00000000  0.00000000 0.0 0.0 -1.0
Mn  3.50000000  2.50000000  0.50000000 0.0 0.0 1.0
Mn  4.00000000  2.00000000  0.00000000 0.0 0.0 -1.0
Mn  4.50000000  2.50000000  0.50000000 0.0 0.0 1.0
Mn  0.00000000  3.00000000  0.00000000 0.0 0.0 1.0
Mn  0.50000000  3.50000000  0.50000000 0.0 0.0 -1.0
Mn  1.00000000  3.00000000  0.00000000 0.0 0.0 1.0
Mn  1.50000000  3.50000000  0.50000000 0.0 0.0 1.0
Mn  2.00000000  3.00000000  0.00000000 0.0 0.0 -1.0
Mn  2.50000000  3.50000000  0.50000000 0.0 0.0 -1.0
Mn  3.00000000  3.00000000  0.00000000 0.0 0.0 1.0
Mn  3.50000000  3.50000000  0.50000000 0.0 0.0 1.0
Mn  4.00000000  3.00000000  0.00000000 0.0 0.0 1.0
Mn  4.50000000  3.50000000  0.50000000 0.0 0.0 1.0
Mn  0.00000000  4.00000000  0.00000000 0.0 0.0 -1.0
Mn  0.50000000  4.50000000  0.50000000 0.0 0.0 1.0
Mn  1.00000000  4.00000000  0.00000000 0.0 0.0 1.0
Mn  1.50000000  4.50000000  0.50000000 0.0 0.0 1.0
Mn  2.00000000  4.00000000  0.00000000 0.0 0.0 -1.0
Mn  2.50000000  4.50000000  0.50000000 0.0 0.0 -1.0
Mn  3.00000000  4.00000000  0.00000000 0.0 0.0 -1.0
Mn  3.50000000  4.50000000  0.50000000 0.0 0.0 -1.0
Mn  4.00000000  4.00000000  0.00000000 0.0 0.0 1.0
Mn  4.50000000  4.50000000  0.50000000 0.0 0.0 -1.0
Mn  0.00000000  0.00000000  1.00000000 0.0 0.0 1.0
Mn  0.50000000  0.50000000  1.50000000 0.0 0.0 -1.0
Mn  1.00000000  0.00000000  1.00000000 0.0 0.0 1.0
Mn  1.50000000  0.50000000  1.50000000 0.0 0.0 -1.0
Mn  2.00000000  0.00000000  1.00000000 0.0 0.0 1.0
Mn  2.50000000  0.50000000  1.50000000 0.0 0.0 1.0
Mn  3.00000000  0.00000000  1.00000000 0.0 0.0 1.0
Mn  3.50000000  0.50000000  1.50000000 0.0 0.0 -1.0
Mn  4.00000000  0.00000000  1.00000000 0.0 0.0 1.0
Mn  4.50000000  0.50000000  1.50000000 0.0 0.0 -1.0
Mn  0.00000000  1.00000000  1.00000000 0.0 0.0 1.0
Mn  0.50000000  1.50000000  1.50000000 0.0 0.0 1.0
Mn  1.00000000  1.00000000  1.00000000 0.0 0.0 1.0
Mn  1.50000000  1.50000000  1.50000000 0.0 0.0 1.0
Mn  2.00000000  1.00000000  1.00000000 0.0 0.0 -1.0
Mn  2.50000000  1.50000000  1.50000000 0.0 0.0 1.0
Mn  3.00000000  1.00000000  1.00000000 0.0 0.0 -1.0
Mn  3.50000000  1.50000000  1.50000000 0.0 0.0 1.0
Mn  4.00000000  1.00000000  1.00000000 0.0 0.0 1.0
Mn  4.50000000  1.50000000  1.50000000 0.0 0.0 -1.0
Mn  0.00000000  2.00000000  1.00000000 0.0 0.0 1.0
Mn  0.50000000  2.50000000  1.50000000 0.0 0.0 -1.0
Mn  1.00000000  2.00000000  1.00000000 0.0 0.0 1.0
Mn  1.50000000  2.50000000  1.50000000 0.0 0.0 1.0
Mn  2.00000000  2.00000000  1.00000000 0.0 0.0 1.0
Mn  2.50000000  2.50000000  1.50000000 0.0 0.0 1.0
Mn  3.00000000  2.00000000  1.00000000 0.0 0.0 -1.0
Mn  3.50000000  2.50000000  1.50000000 0.0 0.0 1.0
Mn  4.00000000  2.00000000  1.00000000 0.0 0.0 -1.0
Mn  4.50000000  2.50000000  1.50000000 0.0 0.0 1.0
Mn  0.00000000  3.00000000  1.00000000 0.0 0.0 1.0
Mn  0.50000000  3.50000000  1.50000000 0.0 0.0 -1.0
Mn  1.00000000  3.00000000  1.00000000 0.0 0.0 -1.0
Mn  1.50000000  3.50000000  1.50000000 0.0 0.0 1.0
Mn  2.00000000  3.00000000  1.00000000 0.0 0.0 1.0
Mn  2.50000000  3.50000000  1.50000000 0.0 0.0 -1.0
Mn  3.00000000  3.00000000  1.00000000 0.0 0.0 1.0
Mn  3.50000000  3.50000000  1.50000000 0.0 0.0 1.0
Mn  4.00000000  3.00000000  1.00000000 0.0 0.0 -1.0
Mn  4.50000000  3.50000000  1.50000000 0.0 0.0 -1.0
Mn  0.00000000  4.00000000  1.00000000 0.0 0.0 1.0
Mn  0.50000000  4.50000000  1.50000000 0.0 0.0 1.0
Mn  1.00000000  4.00000000  1.00000000 0.0 0.0 -1.0
Mn  1.50000000  4.50000000  1.50000000 0.0 0.0 -1.0
Mn  2.00000000  4.00000000  1.00000000 0.0 0.0 -1.0
Mn  2.50000000  4.50000000  1.50000000 0.0 0.0 -1.0
Mn  3.00000000  4.00000000  1.00000000 0.0 0.0 -1.0
Mn  3.50000000  4.50000000  1.50000000 0.0 0.0 1.0
Mn  4.00000000  4.00000000  1.00000000 0.0 0.0 1.0
Mn  4.50000000  4.50000000  1.50000000 0.0 0.0 1.0
Mn  0.00000000  0.00000000  2.00000000 0.0 0.0 1.0
Mn  0.50000000  0.50000000  2.50000000 0.0 0.0 1.0
Mn  1.00000000  0.00000000  2.00000000 0.0 0.0 1.0
Mn  1.50000000  0.50000000  2.50000000 0.0 0.0 -1.0
Mn  2.00000000  0.00000000  2.00000000 0.0 0.0 1.0
Mn  2.50000000  0.50000000  2.50000000 0.0 0.0 1.0
Mn  3.00000000  0.00000000  2.00000000 0.0 0.0 1.0
Mn  3.50000000  0.50000000  2.50000000 0.0 0.0 1.0
Mn  4.00000000  0.00000000  2.00000000 0.0 0.0 1.0
Mn  4.50000000  0.50000000  2.50000000 0.0 0.0 -1.0
Mn  0.00000000  1.00000000  2.00000000 0.0 0.0 1.0
Mn  0.50000000  1.50000000  2.50000000 0.0 0.0 -1.0
Mn  1.00000000  1.00000000  2.00000000 0.0 0.0 1.0
Mn  1.50000000  1.50000000  2.50000000 0.0 0.0 1.0
Mn  2.00000000  1.00000000  2.00000000 0.0 0.0 -1.0
Mn  2.50000000  1.50000000  2.50000000 0.0 0.0 -1.0
Mn  3.00000000  1.00000000  2.00000000 0.0 0.0 1.0
Mn  3.50000000  1.50000000  2.50000000 0.0 0.0 1.0
Mn  4.00000000  1.00000000  2.00000000 0.0 0.0 -1.0
Mn  4.50000000  1.50000000  2.50000000 0.0 0.0 1.0
Mn  0.00000000  2.00000000  2.00000000 0.0 0.0 1.0
Mn  0.50000000  2.50000000  2.50000000 0.0 0.0 1.0
Mn  1.00000000  2.00000000  2.00000000 0.0 0.0 1.0
Mn  1.50000000  2.50000000  2.50000000 0.0 0.0 1.0
Mn  2.00000000  2.00000000  2.00000000 0.0 0.0 -1.0
Mn  2.50000000  2.50000000  2.50000000 0.0 0.0 -1.0
Mn  3.00000000  2.00000000  2.00000000 0.0 0.0 -1.0
Mn  3.50000000  2.50000000  2.50000000 0.0 0.0 -1.0
Mn  4.00000000  2.00000000  2.00000000 0.0 0.0 1.0
Mn  4.50000000  2.50000000  2.50000000 0.0 0.0 -1.0
Mn  0.00000000  3.00000000  2.00000000 0.0 0.0 1.0
Mn  0.50000000  3.50000000  2.50000000 0.0 0.0 -1.0
Mn  1.00000000  3.00000000  2.00000000 0.0 0.0 1.0
Mn  1.50000000  3.50000000  2.50000000 0.0 0.0 -1.0
Mn  2.00000000  3.00000000  2.00000000 0.0 0.0 1.0
Mn  2.50000000  3.50000000  2.50000000 0.0 0.0 1.0
Mn  3.00000000  3.00000000  2.00000000 0.0 0.0 -1.0
Mn  3.50000000  3.50000000  2.50000000 0.0 0.0 -1.0
Mn  4.00000000  3.00000000  2.00000000 0.0 0.0 -1.0
Mn  4.50000000  3.50000000  2.50000000 0.0 0.0 -1.0
Mn  0.00000000  4.00000000  2.00000000 0.0 0.0 1.0
Mn  0.50000000  4.50000000  2.50000000 0.0 0.0 1.0
Mn  1.00000000  4.00000000  2.00000000 0.0 0.0 1.0
Mn  1.50000000  4.50000000  2.50000000 0.0 0.0 -1.0
Mn  2.00000000  4.00000000  2.00000000 0.0 0.0 1.0
Mn  2.50000000  4.50000000  2.50000000 0.0 0.0 1.0
Mn  3.00000000  4.00000000  2.00000000 0.0 0.0 -1.0
Mn  3.50000000  4.50000000  2.50000000 0.0 0.0 -1.0
Mn  4.00000000  4.00000000  2.00000000 0.0 0.0 1.0
Mn  4.50000000  4.50000000  2.50000000 0.0 0.0 1.0
Mn  0.00000000  0.00000000  3.00000000 0.0 0.0 1.0
Mn  0.50000000  0.50000000  3.50000000 0.0 0.0 -1.0
Mn  1.00000000  0.00000000  3.00000000 0.0 0.0 -1.0
Mn  1.50000000  0.50000000  3.50000000 0.0 0.0 -1.0
Mn  2.00000000  0.00000000  3.00000000 0.0 0.0 1.0
Mn  2.50000000  0.50000000  3.50000000 0.0 0.0 1.0
Mn  3.00000000  0.00000000  3.00000000 0.0 0.0 1.0
Mn  3.50000000  0.50000000  3.50000000 0.0 0.0 -1.0
Mn  4.00000000  0.00000000  3.00000000 0.0 0.0 1.0
Mn  4.50000000  0.50000000  3.50000000 0.0 0.0 1.0
Mn  0.00000000  1.00000000  3.00000000 0.0 0.0 1.0
Mn  0.50000000  1.50000000  3.50000000 0.0 0.0 -1.0
Mn  1.00000000  1.00000000  3.00000000 0.0 0.0 1.0
Mn  1.50000000  1.50000000  3.50000000 0.0 0.0 -1.0
Mn  2.00000000  1.00000000  3.00000000 0.0 0.0 -1.0
Mn  2.50000000  1.50000000  3.50000000 0.0 0.0 1.0
Mn  3.00000000  1.00000000  3.00000000 0.0 0.0 -1.0
Mn  3.50000000  1.50000000  3.50000000 0.0 0.0 -1.0
Mn  4.00000000  1.00000000  3.00000000 0.0 0.0 -1.0
Mn  4.50000000  1.50000000  3.50000000 0.0 0.0 -1.0
Mn  0.00000000  2.00000000  3.00000000 0.0 0.0 -1.0
Mn  0.50000000  2.50000000  3.50000000 0.0 0.0 1.0
Mn  1.00000000  2.00000000  3.00000000 0.0 0.0 1.0
Mn  1.50000000  2.50000000  3.50000000 0.0 0.0 1.0
Mn  2.00000000  2.00000000  3.00000000 0.0 0.0 1.0
Mn  2.50000000  2.50000000  3.50000000 0.0 0.0 -1.0
Mn  3.00000000  2.00000000  3.00000000 0.0 0.0 -1.0
Mn  3.50000000  2.50000000  3.50000000 0.0 0.0 -1.0
Mn  4.00000000  2.00000000  3.00000000 0.0 0.0 -1.0
Mn  4.50000000  2.50000000  3.50000000 0.0 0.0 1.0
Mn  0.00000000  3.00000000  3.00000000 0.0 0.0 1.0
Mn  0.50000000  3.50000000  3.50000000 0.0 0.0 1.0
Mn  1.00000000  3.00000000  3.00000000 0.0 0.0 1.0
Mn  1.50000000  3.50000000  3.50000000 0.0 0.0 -1.0
Mn  2.00000000  3.00000000  3.00000000 0.0 0.0 -1.0
Mn  2.50000000  3.50000000  3.50000000 0.0 0.0 -1.0
Mn  3.00000000  3.00000000  3.00000000 0.0 0.0 1.0
Mn  3.50000000  3.50000000  3.50000000 0.0 0.0 1.0
Mn  4.00000000  3.00000000  3.00000000 0.0 0.0 -1.0
Mn  4.50000000  3.50000000  3.50000000 0.0 0.0 1.0
Mn  0.00000000  4.00000000  3.00000000 0.0 0.0 -1.0
Mn  0.50000000  4.50000000  3.50000000 0.0 0.0 1.0
Mn  1.00000000  4.00000000  3.00000000 0.0 0.0 1.0
Mn  1.50000000  4.50000000  3.50000000 0.0 0.0 -1.0
Mn  2.00000000  4.00000000  3.00000000 0.0 0.0 1.0
Mn  2.50000000  4.50000000  3.50000000 0.0 0.0 -1.0
Mn  3.00000000  4.00000000  3.00000000 0.0 0.0 -1.0
Mn  3.50000000  4.50000000  3.50000000 0.0 0.0 1.0
Mn  4.00000000  4.00000000  3.00000000 0.0 0.0 -1.0
Mn  4.50000000  4.50000000  3.50000000 0.0 0.0 -1.0
Mn  0.00000000  0.00000000  4.00000000 0.0 0.0 -1.0
Mn  0.50000000  0.50000000  4.50000000 0.0 0.0 -1.0
Mn  1.00000000  0.00000000  4.00000000 0.0 0.0 1.0
Mn  1.50000000  0.50000000  4.50000000 0.0 0.0 -1.0
Mn  2.00000000  0.00000000  4.00000000 0.0 0.0 1.0
Mn  2.50000000  0.50000000  4.50000000 0.0 0.0 1.0
Mn  3.00000000  0.00000000  4.00000000 0.0 0.0 -1.0
Mn  3.50000000  0.50000000  4.50000000 0.0 0.0 -1.0
Mn  4.00000000  0.00000000  4.00000000 0.0 0.0 1.0
Mn  4.50000000  0.50000000  4.50000000 0.0 0.0 1.0
Mn  0.00000000  1.00000000  4.00000000 0.0 0.0 1.0
Mn  0.50000000  1.50000000  4.50000000 0.0 0.0 1.0
Mn  1.00000000  1.00000000  4.00000000 0.0 0.0 1.0
Mn  1.50000000  1.50000000  4.50000000 0.0 0.0 1.0
Mn  2.00000000  1.00000000  4.00000000 0.0 0.0 1.0
Mn  2.50000000  1.50000000  4.50000000 0.0 0.0 1.0
Mn  3.00000000  1.00000000  4.00000000 0.0 0.0 1.0
Mn  3.50000000  1.50000000  4.50000000 0.0 0.0 1.0
Mn  4.00000000  1.00000000  4.00000000 0.0 0.0 1.0
Mn  4.50000000  1.50000000  4.50000000 0.0 0.0 1.0
Mn  0.00000000  2.00000000  4.00000000 0.0 0.0 1.0
Mn  0.50000000  2.50000000  4.50000000 0.0 0.0 1.0
Mn  1.00000000  2.00000000  4.00000000 0.0 0.0 -1.0
Mn  1.50000000  2.50000000  4.50000000 0.0 0.0 1.0
Mn  2.00000000  2.00000000  4.00000000 0.0 0.0 1.0
Mn  2.50000000  2.50000000  4.50000000 0.0 0.0 -1.0
Mn  3.00000000  2.00000000  4.00000000 0.0 0.0 1.0
Mn  3.50000000  2.50000000  4.50000000 0.0 0.0 1.0
Mn  4.00000000  2.00000000  4.00000000 0.0 0.0 1.0
Mn  4.50000000  2.50000000  4.50000000 0.0 0.0 1.0
Mn  0.00000000  3.00000000  4.00000000 0.0 0.0 1.0
Mn  0.50000000  3.50000000  4.50000000 0.0 0.0 -1.0
Mn  1.00000000  3.00000000  4.00000000 0.0 0.0 1.0
Mn  1.50000000  3.50000000  4.50000000 0.0 0.0 -1.0
Mn  2.00000000  3.00000000  4.00000000 0.0 0.0 1.0
Mn  2.50000000  3.50000000  4.50000000 0.0 0.0 1.0
Mn  3.00000000  3.00000000  4.00000000 0.0 0.0 1.0
Mn  3.50000000  3.50000000  4.50000000 0.0 0.0 -1.0
Mn  4.00000000  3.00000000  4.00000000 0.0 0.0 1.0
Mn  4.50000000  3.50000000  4.50000000 0.0 0.0 1.0
Mn  0.00000000  4.00000000  4.00000000 0.0 0.0 -1.0
Mn  0.50000000  4.50000000  4.50000000 0.0 0.0 1.0
Mn  1.00000000  4.00000000  4.00000000 0.0 0.0 -1.0
Mn  1.50000000  4.50000000  4.50000000 0.0 0.0 -1.0
Mn  2.00000000  4.00000000  4.00000000 0.0 0.0 -1.0
Mn  2.50000000  4.50000000  4.50000000 0.0 0.0 -1.0
Mn  3.00000000  4.00000000  4.00000000 0.0 0.0 -1.0
Mn  3.50000000  4.50000000  4.50000000 0.0 0.0 -1.0
Mn  4.00000000  4.00000000  4.00000000 0.0 0.0 -1.0
Mn  4.50000000  4.50000000  4.50000000 0.0 0.0 1.0
